41
LockSF_gs_vertical.log	Energy: -761440.2834663
C          3.59345       -1.80137       -2.30871
C          3.71961       -0.94981       -1.21767
C          2.58080       -0.45874       -0.58734
C          1.30587       -0.82703       -1.05856
C          1.19619       -1.67938       -2.15039
C          2.33778       -2.16797       -2.77736
Si        -0.00001       -0.00021        0.00038
C          1.30608        0.82620        1.05924
C          2.58090        0.45808        0.58757
C          3.71984        0.94942        1.21742
C          3.59395        1.80113        2.30838
C          2.33836        2.16748        2.77751
C          1.19660        1.67848        2.15110
C         -1.30565        1.05902       -0.82648
C         -2.58068        0.58774       -0.45865
C         -3.71931        1.21807       -0.95011
C         -3.59286        2.30912       -1.80164
C         -2.33707        2.77787       -2.16771
C         -1.19565        2.15096       -1.67862
C         -2.58107       -0.58721        0.45815
C         -1.30637       -1.05889        0.82665
C         -1.19711       -2.15075        1.67896
C         -2.33901       -2.77712        2.16765
C         -3.59450       -2.30800        1.80092
C         -3.72015       -1.21708        0.94912
H          4.48354       -2.18132       -2.79642
H          4.70807       -0.67657       -0.86848
H          0.21909       -1.96951       -2.52143
H          2.24901       -2.83241       -3.62857
H          4.70822        0.67624        0.86791
H          4.48417        2.18131        2.79563
H          2.24984        2.83197        3.62869
H          0.21948        1.96816        2.52242
H         -4.70789        0.86902       -0.67712
H         -4.48282        2.79680       -2.18191
H         -2.24813        3.62912       -2.83206
H         -0.21840        2.52209       -1.96826
H         -0.22004       -2.52206        1.96890
H         -2.25069       -3.62827        2.83223
H         -4.48483       -2.79522        2.18089
H         -4.70843       -0.86761        0.67560
