43
UnlockSF_gs_vertical.log	Energy: -762189.6866685
C          2.87961       -3.85763        0.49589
C          3.29285       -2.65898        1.06370
C          2.53031       -1.51075        0.89388
C          1.33963       -1.53417        0.15909
C          0.94167       -2.75118       -0.40402
C          1.70236       -3.90201       -0.23955
Si         0.26603        0.00017       -0.00075
C          1.33814        1.53546       -0.16121
C          0.93590        2.75292        0.39792
C          1.69496        3.90480        0.23371
C          2.87490        3.86104       -0.49744
C          3.29242        2.66195       -1.06123
C          2.53142        1.51259       -0.89179
C         -1.04813        0.16167        1.33300
C         -2.32312        0.08592        0.74077
C         -3.46295        0.17099        1.53496
C         -3.33852        0.32910        2.90959
C         -2.08273        0.40255        3.50031
C         -0.94121        0.31809        2.70993
C         -2.32412       -0.08625       -0.73879
C         -1.04990       -0.16275       -1.33261
C         -0.94487       -0.32156       -2.70938
C         -2.08740       -0.40725       -3.49813
C         -3.34240       -0.33241       -2.90594
C         -3.46503       -0.17209       -1.53140
H          3.47473       -4.75409        0.62478
H          4.21148       -2.61779        1.63727
H          2.87455       -0.58311        1.33853
H          0.02578       -2.80333       -0.98247
H          1.37632       -4.83361       -0.68716
H          0.01794        2.80457        0.97310
H          1.36556        4.83674        0.67817
H          3.46886        4.75831       -0.62606
H          4.21323        2.62135       -1.63134
H          2.87911        0.58462       -1.33315
H         -4.45103        0.11458        1.09419
H         -4.22888        0.39436        3.52402
H         -1.99428        0.52436        4.57336
H          0.03513        0.37530        3.17964
H          0.03081       -0.38005       -3.18020
H         -2.00034       -0.53114       -4.57108
H         -4.23356       -0.39859       -3.51911
H         -4.45259       -0.11501       -1.08946
